120
150
33
28
40
20
46
57
87
80
80
99
63
83
97
63
47
65
98
28
70
28
90
66
99
82
22
80
33
21
46
80
20
70
75
50
33
75
35
53
31
97
35
82
63
73
82
33
91
37
59
40
75
60
43
47
75
88
40
90
31
41
69
35
99
60
35
48
60
50
90
47
95
33
77
98
35
94
93
59
59
50
56
88
80
77
57
61
96
38
70
95
45
75
53
21
53
75
32
63
98
46
80
69
47
53
41
69
28
40
78
28
89
98
66
82
32
29
32
52
53
97
